(set-logic ALL)
(declare-const data_bits_VAR String)
(assert (< 0 (str.len data_bits_VAR)))
(assert (> (str.len data_bits_VAR) 0))
(assert (< 1 (str.len data_bits_VAR)))
(assert (> (str.len data_bits_VAR) 1))
(assert (< 2 (str.len data_bits_VAR)))
(assert (> (str.len data_bits_VAR) 2))
(assert (< 3 (str.len data_bits_VAR)))
(assert (> (str.len data_bits_VAR) 3))
(assert (< 4 (str.len data_bits_VAR)))
(assert (> (str.len data_bits_VAR) 4))
(assert (< 5 (str.len data_bits_VAR)))
(assert (> (str.len data_bits_VAR) 5))
(assert (< 6 (str.len data_bits_VAR)))
(assert (> (str.len data_bits_VAR) 6))
(assert (< 7 (str.len data_bits_VAR)))
(assert (> (str.len data_bits_VAR) 7))
(assert (< 8 (str.len data_bits_VAR)))
(assert (> (str.len data_bits_VAR) 8))
(assert (< 9 (str.len data_bits_VAR)))
(assert (> (str.len data_bits_VAR) 9))
(assert (< 10 (str.len data_bits_VAR)))
(assert (> (str.len data_bits_VAR) 10))
(assert (< 11 (str.len data_bits_VAR)))
(assert (> (str.len data_bits_VAR) 11))
(assert (< 12 (str.len data_bits_VAR)))
(assert (> (str.len data_bits_VAR) 12))
(assert (< 13 (str.len data_bits_VAR)))
(assert (> (str.len data_bits_VAR) 13))
(assert (< 14 (str.len data_bits_VAR)))
(assert (> (str.len data_bits_VAR) 14))
(assert (< 15 (str.len data_bits_VAR)))
(assert (> (str.len data_bits_VAR) 15))
(assert (< 16 (str.len data_bits_VAR)))
(assert (> (str.len data_bits_VAR) 16))
(assert (< 17 (str.len data_bits_VAR)))
(assert (> (str.len data_bits_VAR) 17))
(assert (< 18 (str.len data_bits_VAR)))
(assert (> (str.len data_bits_VAR) 18))
(assert (< 19 (str.len data_bits_VAR)))
(assert (> (str.len data_bits_VAR) 19))
(assert (< 20 (str.len data_bits_VAR)))
(assert (> (str.len data_bits_VAR) 20))
(assert (< 21 (str.len data_bits_VAR)))
(assert (> (str.len data_bits_VAR) 21))
(assert (< 22 (str.len data_bits_VAR)))
(assert (> (str.len data_bits_VAR) 22))
(assert (< 23 (str.len data_bits_VAR)))
(assert (> (str.len data_bits_VAR) 23))
(assert (< 24 (str.len data_bits_VAR)))
(assert (> (str.len data_bits_VAR) 24))
(assert (< 25 (str.len data_bits_VAR)))
(assert (> (str.len data_bits_VAR) 25))
(assert (< 26 (str.len data_bits_VAR)))
(assert (> (str.len data_bits_VAR) 26))
(assert (< 27 (str.len data_bits_VAR)))
(assert (> (str.len data_bits_VAR) 27))
(assert (< 28 (str.len data_bits_VAR)))
(assert (> (str.len data_bits_VAR) 28))
(assert (< 29 (str.len data_bits_VAR)))
(assert (> (str.len data_bits_VAR) 29))
(assert (< 30 (str.len data_bits_VAR)))
(assert (> (str.len data_bits_VAR) 30))
(assert (< 31 (str.len data_bits_VAR)))
(assert (> (str.len data_bits_VAR) 31))
(assert (< 32 (str.len data_bits_VAR)))
(assert (> (str.len data_bits_VAR) 32))
(assert (< 33 (str.len data_bits_VAR)))
(assert (not (> (str.len data_bits_VAR) 33)))
(check-sat)
(get-value (data_bits_VAR))
